Normalized Data/p02_25_normalized_split0.vrp
NAME:p02_25_NORMALIZED_split
BEST_KNOWN: 0
COMMENT: 0
DIMENSION: 277
CAPACITY: 100
EDGE_WEIGHT_FORMAT: FUNCTION
EDGE_WEIGHT_TYPE: EXACT_2D
NODE_COORD_SECTION
1 0.00000 0.00000
2 -24 -24
3 -24 -24
4 -24 -24
5 10 -15
6 10 -15
7 -15 -39
8 -15 -39
9 13 16
10 13 16
11 11 -39
12 11 -39
13 11 -39
14 11 -39
15 -41 -41
16 -41 -41
17 -41 -41
18 -2 24
19 -2 24
20 -2 24
21 -2 24
22 -44 -9
23 -44 -9
24 -44 -9
25 -44 -9
26 -44 -9
27 -44 -9
28 41 19
29 41 19
30 5 -13
31 5 -13
32 -37 -16
33 -37 -16
34 -37 -16
35 -18 6
36 -18 6
37 -18 6
38 -18 6
39 -6 -22
40 -6 -22
41 -11 4
42 -11 4
43 5 -28
44 5 -28
45 25 44
46 -48 -40
47 -48 -40
48 -48 -40
49 -48 -40
50 27 -22
51 27 -22
52 27 -22
53 27 -22
54 -41 -40
55 -41 -40
56 -41 -40
57 -41 -40
58 44 -6
59 44 -6
60 44 -6
61 -40 -11
62 -40 -11
63 -40 -11
64 -40 -11
65 -40 -11
66 35 -29
67 35 -29
68 35 -29
69 35 -29
70 35 -29
71 35 -29
72 24 -4
73 24 -4
74 24 -4
75 24 -4
76 24 -4
77 35 -36
78 35 -36
79 35 -36
80 35 -36
81 -49 -21
82 -49 -21
83 -49 -21
84 -42 24
85 -42 24
86 -42 24
87 -42 24
88 -35 -49
89 -35 -49
90 -35 -49
91 -35 -49
92 43 5
93 43 5
94 43 5
95 43 5
96 43 5
97 -6 -8
98 -6 -8
99 -6 -8
100 -6 -8
101 -33 -41
102 -33 -41
103 -33 -41
104 -35 16
105 -35 16
106 -35 16
107 -35 16
108 32 -45
109 32 -45
110 20 -16
111 -12 50
112 -12 50
113 -12 50
114 -12 50
115 -12 50
116 -12 50
117 -49 41
118 -49 41
119 -49 41
120 -49 41
121 36 43
122 36 43
123 36 43
124 -7 22
125 -7 22
126 -7 22
127 -7 22
128 -7 22
129 -10 -41
130 -10 -41
131 -10 -41
132 -10 -41
133 33 -11
134 33 -11
135 33 -11
136 33 -11
137 33 -11
138 33 -11
139 33 -11
140 43 -37
141 43 -37
142 43 -37
143 43 -37
144 43 -37
145 43 -37
146 -9 -3
147 -9 -3
148 -9 -3
149 4 17
150 4 17
151 4 17
152 -42 18
153 -42 18
154 -42 18
155 -42 18
156 -42 18
157 -12 9
158 -12 9
159 -12 9
160 -12 9
161 -12 9
162 19 13
163 19 13
164 19 13
165 19 13
166 19 13
167 19 -30
168 19 -30
169 19 -30
170 19 -30
171 19 -30
172 28 -50
173 28 -50
174 28 -50
175 28 -50
176 6 -49
177 6 -49
178 6 -49
179 6 -49
180 34 27
181 34 27
182 34 27
183 -30 30
184 -30 30
185 -30 30
186 -30 30
187 23 -35
188 23 -35
189 23 -35
190 23 -35
191 23 -35
192 17 37
193 17 37
194 17 37
195 -21 28
196 -21 28
197 -21 28
198 -21 28
199 -21 28
200 8 -30
201 8 -30
202 8 -30
203 8 -30
204 -31 -23
205 35 29
206 35 29
207 35 29
208 24 -2
209 24 -2
210 24 -2
211 -21 -23
212 -21 -23
213 -21 -23
214 -21 -23
215 -21 -23
216 49 42
217 49 42
218 49 42
219 33 -41
220 33 -41
221 33 -41
222 -48 36
223 -48 36
224 -48 36
225 -48 36
226 46 -1
227 46 -1
228 46 -1
229 46 -1
230 35 17
231 35 17
232 35 17
233 35 17
234 35 17
235 7 -16
236 7 -16
237 7 -16
238 7 -16
239 38 -50
240 38 -50
241 38 -50
242 21 -24
243 21 -24
244 21 -24
245 2 -49
246 2 -49
247 2 -49
248 2 -49
249 2 -49
250 2 -49
251 3 -22
252 3 -22
253 3 -22
254 -2 -16
255 -2 -16
256 -2 -16
257 -2 -16
258 -2 -16
259 -34 43
260 -34 43
261 -34 43
262 -33 25
263 -33 25
264 -33 25
265 -33 25
266 28 -40
267 28 -40
268 28 -40
269 28 -40
270 44 -6
271 44 -6
272 44 -6
273 -13 -44
274 -13 -44
275 -13 -44
276 42 18
277 42 18
DEMAND_SECTION
1 0
2 20
3 5
4 1
5 20
6 10
7 20
8 10
9 10
10 5
11 20
12 10
13 1
14 1
15 10
16 5
17 1
18 20
19 10
20 5
21 1
22 20
23 10
24 5
25 1
26 1
27 1
28 20
29 20
30 20
31 10
32 20
33 10
34 5
35 10
36 5
37 1
38 1
39 20
40 10
41 20
42 5
43 10
44 5
45 20
46 10
47 5
48 1
49 1
50 10
51 5
52 1
53 1
54 20
55 20
56 1
57 1
58 20
59 20
60 5
61 10
62 5
63 1
64 1
65 1
66 20
67 10
68 1
69 1
70 1
71 1
72 10
73 5
74 1
75 1
76 1
77 10
78 5
79 1
80 1
81 20
82 20
83 1
84 20
85 5
86 1
87 1
88 20
89 5
90 1
91 1
92 10
93 1
94 1
95 1
96 1
97 20
98 1
99 1
100 1
101 20
102 1
103 1
104 20
105 5
106 1
107 1
108 10
109 5
110 20
111 20
112 10
113 5
114 1
115 1
116 1
117 10
118 5
119 1
120 1
121 10
122 1
123 1
124 20
125 10
126 1
127 1
128 1
129 20
130 20
131 1
132 1
133 20
134 20
135 5
136 1
137 1
138 1
139 1
140 20
141 20
142 5
143 1
144 1
145 1
146 20
147 20
148 1
149 20
150 20
151 5
152 10
153 1
154 1
155 1
156 1
157 10
158 5
159 1
160 1
161 1
162 10
163 1
164 1
165 1
166 1
167 20
168 20
169 5
170 1
171 1
172 20
173 5
174 1
175 1
176 10
177 5
178 1
179 1
180 20
181 20
182 1
183 20
184 10
185 1
186 1
187 20
188 5
189 1
190 1
191 1
192 20
193 20
194 5
195 10
196 5
197 1
198 1
199 1
200 20
201 10
202 1
203 1
204 20
205 20
206 10
207 5
208 20
209 1
210 1
211 20
212 20
213 5
214 1
215 1
216 20
217 20
218 5
219 20
220 1
221 1
222 10
223 5
224 1
225 1
226 20
227 5
228 1
229 1
230 10
231 5
232 1
233 1
234 1
235 10
236 5
237 1
238 1
239 20
240 1
241 1
242 10
243 1
244 1
245 10
246 5
247 1
248 1
249 1
250 1
251 20
252 10
253 1
254 10
255 1
256 1
257 1
258 1
259 20
260 20
261 5
262 10
263 1
264 1
265 1
266 20
267 20
268 1
269 1
270 20
271 1
272 1
273 20
274 1
275 1
276 20
277 10
DEPOT_SECTION
1
-1
EOF