Normalized Data/p02_25_normalized_split0.sol
276 -2 3 1 213 211 210 214 39 38 -4 5 234 236 237 235 30 29 257 256 254 255 253 -7 6 274 273 272 130 128 131 129 -8 9 44 121 122 120 217 215 216 -18 17 20 123 127 125 126 124 156 159 41 40 -19 114 111 110 112 113 115 185 182 184 183 196 198 194 197 195 -25 21 23 26 24 22 60 62 64 61 63 31 32 33 -34 35 36 37 106 104 105 103 155 151 153 152 154 84 86 85 83 -69 67 65 68 66 70 142 140 139 143 141 144 78 76 77 79 -80 82 81 45 46 48 47 55 53 203 -93 94 226 227 225 228 58 270 269 59 57 271 -95 92 91 275 276 28 27 230 233 229 232 231 -97 99 98 96 147 146 145 -100 101 102 88 90 87 89 14 15 16 54 56 212 -109 49 51 50 52 267 268 265 266 186 -132 138 136 133 137 134 135 75 74 73 72 71 207 208 209 -148 149 150 191 192 193 -158 160 157 261 264 263 262 223 221 222 224 116 117 118 119 258 259 260 -164 161 165 163 162 181 180 179 205 206 204 -168 169 188 187 190 189 174 173 171 172 239 240 238 108 107 219 218 220 -199 11 10 13 12 178 177 176 175 249 246 248 244 245 247 252 251 -241 242 243 170 167 166 200 201 202 43 42 250 0 





OBJ=
2146.963
BEST_KNOWN=
0.000